NAME : dsj1000
COMMENT : Clustered random problem (Johnson)
TYPE : TSP
DIMENSION : 80  
EDGE_WEIGHT_TYPE : CEIL_2D
NODE_COORD_SECTION
1 -4.500000 -1.500000
2 -4.500000 -0.500000
3 -4.500000 0.500000
4 -4.500000 1.500000
5 -3.500000 -3.500000
6 -3.500000 -2.500000
7 -3.500000 -1.500000
8 -3.500000 -0.500000
9 -3.500000 0.500000
10 -3.500000 1.500000
11 -3.500000 2.500000
12 -3.500000 3.500000
13 -2.500000 -3.500000
14 -2.500000 -2.500000
15 -2.500000 -1.500000
16 -2.500000 -0.500000
17 -2.500000 0.500000
18 -2.500000 1.500000
19 -2.500000 2.500000
20 -2.500000 3.500000
21 -1.500000 -4.500000
22 -1.500000 -3.500000
23 -1.500000 -2.500000
24 -1.500000 -1.500000
25 -1.500000 -0.500000
26 -1.500000 0.500000
27 -1.500000 1.500000
28 -1.500000 2.500000
29 -1.500000 3.500000
30 -1.500000 4.500000
31 -0.500000 -4.500000
32 -0.500000 -3.500000
33 -0.500000 -2.500000
34 -0.500000 -1.500000
35 -0.500000 -0.500000
36 -0.500000 0.500000
37 -0.500000 1.500000
38 -0.500000 2.500000
39 -0.500000 3.500000
40 -0.500000 4.500000
41 0.500000 -4.500000
42 0.500000 -3.500000
43 0.500000 -2.500000
44 0.500000 -1.500000
45 0.500000 -0.500000
46 0.500000 0.500000
47 0.500000 1.500000
48 0.500000 2.500000
49 0.500000 3.500000
50 0.500000 4.500000
51 1.500000 -4.500000
52 1.500000 -3.500000
53 1.500000 -2.500000
54 1.500000 -1.500000
55 1.500000 -0.500000
56 1.500000 0.500000
57 1.500000 1.500000
58 1.500000 2.500000
59 1.500000 3.500000
60 1.500000 4.500000
61 2.500000 -3.500000
62 2.500000 -2.500000
63 2.500000 -1.500000
64 2.500000 -0.500000
65 2.500000 0.500000
66 2.500000 1.500000
67 2.500000 2.500000
68 2.500000 3.500000
69 3.500000 -3.500000
70 3.500000 -2.500000
71 3.500000 -1.500000
72 3.500000 -0.500000
73 3.500000 0.500000
74 3.500000 1.500000
75 3.500000 2.500000
76 3.500000 3.500000
77 4.500000 -1.500000
78 4.500000 -0.500000
79 4.500000 0.500000
80 4.500000 1.500000
EOF